p cnf 10 20
-1 -10 2 0
7 -3 -7 0
8 4 -9 0
-8 6 -7 0
-5 3 5 0
10 9 9 0
-5 -3 7 0
9 5 6 0
-9 4 -4 0
3 -4 -2 0
7 7 9 0
8 7 2 0
-3 2 8 0
1 2 3 0
-3 5 4 0
-5 6 7 0
-3 -6 4 0
2 8 7 0
-7 9 -7 0
8 5 -6 0
